(set-info :smt-lib-version 2.6)
(set-logic UF)
(set-info :source |Benchmarks from the paper: "Extending Sledgehammer with SMT Solvers" by Jasmin Blanchette, Sascha Bohme, and Lawrence C. Paulson, CADE 2011.  Translated to SMT2 by Andrew Reynolds and Morgan Deters.|)
(set-info :category "industrial")
(set-info :status unsat)
(declare-sort S1 0)
(declare-sort S2 0)
(declare-sort S3 0)
(declare-sort S4 0)
(declare-sort S5 0)
(declare-sort S6 0)
(declare-sort S7 0)
(declare-sort S8 0)
(declare-sort S9 0)
(declare-sort S10 0)
(declare-sort S11 0)
(declare-fun f1 () S1)
(declare-fun f2 () S1)
(declare-fun f3 (S2 S3 S3) S1)
(declare-fun f4 (S7 S8) S1)
(declare-fun f5 (S9 S9) S7)
(declare-fun f6 (S4 S5) S9)
(declare-fun f7 (S2) S8)
(declare-fun f8 (S2 S10 S6 S4 S3) S1)
(declare-fun f9 (S5) S10)
(declare-fun f10 (S2 S6 S5) S1)
(declare-fun f11 (S11 S2) S1)
(declare-fun f12 () S11)
(declare-fun f13 () S2)
(declare-fun f14 () S4)
(declare-fun f15 () S5)
(declare-fun f16 () S4)
(declare-fun f17 () S5)
(declare-fun f18 () S4)
(declare-fun f19 () S5)
(declare-fun f20 (S8) S8)
(declare-fun f21 () S6)
(declare-fun f22 () S3)
(assert (not (= f1 f2)))
(assert (forall ((?v0 S2) (?v1 S3) (?v2 S3) (?v3 S3)) (=> (= (f3 ?v0 ?v1 ?v2) f1) (=> (= (f3 ?v0 ?v2 ?v3) f1) (= (f3 ?v0 ?v1 ?v3) f1)))))
(assert (forall ((?v0 S4) (?v1 S5) (?v2 S4) (?v3 S5) (?v4 S2) (?v5 S6) (?v6 S3)) (=> (= (f4 (f5 (f6 ?v0 ?v1) (f6 ?v2 ?v3)) (f7 ?v4)) f1) (=> (= (f8 ?v4 (f9 ?v1) ?v5 ?v0 ?v6) f1) (=> (= (f10 ?v4 ?v5 ?v1) f1) (= (f10 ?v4 ?v5 ?v3) f1))))))
(assert (= (f11 f12 f13) f1))
(assert (forall ((?v0 S2) (?v1 S4) (?v2 S5) (?v3 S4) (?v4 S5) (?v5 S6) (?v6 S3)) (=> (= (f11 f12 ?v0) f1) (=> (= (f4 (f5 (f6 ?v1 ?v2) (f6 ?v3 ?v4)) (f7 ?v0)) f1) (=> (= (f10 ?v0 ?v5 ?v2) f1) (=> (= (f8 ?v0 (f9 ?v2) ?v5 ?v1 ?v6) f1) (exists ((?v7 S3)) (and (= (f8 ?v0 (f9 ?v4) ?v5 ?v3 ?v7) f1) (= (f3 ?v0 ?v7 ?v6) f1)))))))))
(assert (let ((?v_0 (f6 f16 f17)) (?v_1 (f7 f13))) (not (=> (= (f4 (f5 (f6 f14 f15) ?v_0) ?v_1) f1) (=> (= (f4 (f5 ?v_0 (f6 f18 f19)) (f20 ?v_1)) f1) (=> (forall ((?v0 S3)) (=> (= (f10 f13 f21 f17) f1) (=> (= (f8 f13 (f9 f17) f21 f16 ?v0) f1) (exists ((?v1 S3)) (and (= (f3 f13 ?v1 ?v0) f1) (= (f8 f13 (f9 f19) f21 f18 ?v1) f1)))))) (=> (= (f10 f13 f21 f15) f1) (=> (= (f8 f13 (f9 f15) f21 f14 f22) f1) (exists ((?v0 S3)) (and (= (f3 f13 ?v0 f22) f1) (= (f8 f13 (f9 f19) f21 f18 ?v0) f1)))))))))))
(check-sat)
(exit)
